(set-logic LIA)
(set-info :license "https://creativecommons.org/licenses/by/4.0/")
(set-info :status "unknown")
(set-info :smt-lib-version "2.6")
(declare-fun v_main_~x~0_BEFORE_CALL_5_const_-2050951247 () Int)
(declare-fun v_main_~y~0_BEFORE_CALL_5_const_-697640528 () Int)
(declare-fun v_main_~z~0_BEFORE_CALL_5_const_655670095 () Int)
(assert
  (exists ((reminder_0 Int))
    (and
      (and
        (= (* 1 reminder_0) 1048576)
        (exists ((v_main_#t~nondet2_7 Int) (v_main_#t~nondet2_8 Int) (v_main_#t~nondet2_5 Int) (v_main_#t~nondet2_6 Int))
          (= (+ (* 1 v_main_~z~0_BEFORE_CALL_5_const_655670095) (* (- 4194304) v_main_#t~nondet2_7) (* (- 4194304) v_main_#t~nondet2_8) (* (- 4194304) v_main_#t~nondet2_5) (* (- 4194304) v_main_#t~nondet2_6)) 0)
        )
        (exists ((v_main_#t~nondet1_8 Int) (v_main_#t~nondet1_6 Int) (v_main_#t~nondet1_7 Int) (v_main_#t~nondet1_5 Int))
          (= (+ (* (- 1) v_main_~y~0_BEFORE_CALL_5_const_-697640528) (* 2097152 v_main_#t~nondet1_8) (* 2097152 v_main_#t~nondet1_6) (* 2097152 v_main_#t~nondet1_7) (* 2097152 v_main_#t~nondet1_5)) 0)
        )
        (exists ((v_main_#t~nondet0_7 Int) (v_main_#t~nondet0_8 Int) (v_main_#t~nondet0_5 Int) (v_main_#t~nondet0_6 Int))
          (= (+ (* 1 v_main_~x~0_BEFORE_CALL_5_const_-2050951247) (* (- 1048576) v_main_#t~nondet0_7) (* (- 1048576) v_main_#t~nondet0_8) (* (- 1048576) v_main_#t~nondet0_5) (* (- 1048576) v_main_#t~nondet0_6)) 0)
        )
      )
      (<= (+ (* (- 4) v_main_~x~0_BEFORE_CALL_5_const_-2050951247) (* (- 4294967294) v_main_~y~0_BEFORE_CALL_5_const_-697640528) (* (- 1) v_main_~z~0_BEFORE_CALL_5_const_655670095) (* 4294967296 reminder_0)) 0)
      (<= (+ (* 4 v_main_~x~0_BEFORE_CALL_5_const_-2050951247) (* 4294967294 v_main_~y~0_BEFORE_CALL_5_const_-697640528) (* 1 v_main_~z~0_BEFORE_CALL_5_const_655670095) (* (- 4294967296) reminder_0)) 4294967295)
    )
  )
)
(check-sat)

